Maximize
	- 2 x2 - 2 x3 - 4 x4 - 3 x5 
Maximize
	+ 1 x1 - 2 x2 + 5 x4 
Maximize
	+ 5 x1 + 6 x2 - 1 x3 - 1 x4 + 3 x5 + 2 x6 
Subject To
	+ 3 x4 + 6 x5 <= 6
	+ 1 x1 + 1 x3 - 2 x4 + 3 x5 + 5 x6 <= 7
	+ 3 x1 - 4 x2 - 3 x3 + 2 x4 + 2 x5 + 1 x6 <= 2
Bounds
	0 <= x1 <= 4
	0 <= x2 <= 4
	0 <= x3 <= 4
	0 <= x4 <= 4
	0 <= x5 <= 4
	0 <= x6 <= 4
Integers
	x1 x2 x3 x4 x5 x6 
End